p cnf 99 220
1 -2 0
1 -3 0
2 3 -1 0
4 -1 0
1 -4 0
5 -1 0
1 -5 0
6 -7 0
6 -8 0
6 -9 0
6 -10 0
6 -11 0
6 -12 0
6 -13 0
14 0
15 -6 0
6 -15 0
-8 16 0
-9 16 0
-10 16 0
-11 16 0
-12 16 0
-13 16 0
8 9 10 11 12 13 -16 0
17 -16 0
16 -17 0
-9 18 0
-10 18 0
-11 18 0
-12 18 0
-13 18 0
9 10 11 12 13 -18 0
19 -18 0
18 -19 0
-10 20 0
-11 20 0
-12 20 0
-13 20 0
10 11 12 13 -20 0
21 -20 0
20 -21 0
22 -20 0
20 -22 0
23 -20 0
20 -23 0
24 -20 0
20 -24 0
25 -26 0
25 -27 0
25 -28 0
25 -29 0
25 -30 0
25 -31 0
25 -32 0
33 0
34 -25 0
25 -34 0
-27 35 0
-28 35 0
-29 35 0
-30 35 0
-31 35 0
-32 35 0
27 28 29 30 31 32 -35 0
36 -35 0
35 -36 0
-28 37 0
-29 37 0
-30 37 0
-31 37 0
-32 37 0
28 29 30 31 32 -37 0
38 -37 0
37 -38 0
-29 39 0
-30 39 0
-31 39 0
-32 39 0
29 30 31 32 -39 0
40 -39 0
39 -40 0
41 -39 0
39 -41 0
42 -39 0
39 -42 0
43 -39 0
39 -43 0
44 -45 0
44 -46 0
44 -47 0
45 46 47 -44 0
48 -44 0
44 -48 0
-46 49 0
-47 49 0
46 47 -49 0
50 -49 0
49 -50 0
51 -47 0
47 -51 0
52 -53 0
52 -54 0
52 -55 0
52 -56 0
52 -57 0
53 54 55 56 57 -52 0
58 -52 0
52 -58 0
-54 59 0
-55 59 0
-56 59 0
-57 59 0
54 55 56 57 -59 0
60 -59 0
59 -60 0
-55 61 0
-56 61 0
-57 61 0
55 56 57 -61 0
62 -61 0
61 -62 0
63 -61 0
61 -63 0
64 -61 0
61 -64 0
-2 65 0
-3 65 0
65 -66 0
65 -67 0
65 -68 0
65 -69 0
2 3 66 67 68 69 -65 0
70 -65 0
65 -70 0
-2 71 0
-3 71 0
-67 71 0
-68 71 0
-69 71 0
2 3 67 68 69 -71 0
72 -71 0
71 -72 0
-2 73 0
-3 73 0
-68 73 0
-69 73 0
2 3 68 69 -73 0
74 -73 0
73 -74 0
-2 75 0
-3 75 0
-69 75 0
2 3 69 -75 0
76 -75 0
75 -76 0
-55 77 0
-56 77 0
-57 77 0
77 -78 0
77 -79 0
77 -80 0
77 -81 0
82 0
83 -77 0
77 -83 0
-55 84 0
-56 84 0
-57 84 0
-79 84 0
-80 84 0
-81 84 0
85 0
86 -84 0
84 -86 0
-55 87 0
-56 87 0
-57 87 0
-80 87 0
-81 87 0
55 56 57 80 81 -87 0
88 -87 0
87 -88 0
-55 89 0
-56 89 0
-57 89 0
-81 89 0
55 56 57 81 -89 0
90 -89 0
89 -90 0
-2 91 0
-3 91 0
91 -92 0
91 -93 0
91 -94 0
2 3 92 93 94 -91 0
95 -91 0
91 -95 0
-2 96 0
-3 96 0
-93 96 0
-94 96 0
2 3 93 94 -96 0
97 -96 0
96 -97 0
-2 98 0
-3 98 0
-94 98 0
2 3 94 -98 0
99 -98 0
98 -99 0
4 0
15 0
34 0
38 0
48 0
-51 0
58 0
70 0
83 0
95 0
